c PMC file for PBN EPFL/random_control/ctrl_distill_EPFL/random_control/ctrl_miter written by probABC
p cnf 54 114
c ind 1 2 3 4 5 6 7 43 44 45 46 47 48 49 50 51 0
12 4 5 0
-12 -4 0
-12 -5 0
13 -4 -5 0
-13 4 0
-13 5 0
14 12 13 0
-14 -12 0
-14 -13 0
15 -1 14 0
-15 1 0
-15 -14 0
16 8 -15 0
-16 -8 0
-16 15 0
17 1 -12 0
-17 -1 0
-17 12 0
18 -8 15 0
-18 8 0
-18 -15 0
19 16 17 0
-19 -16 0
-19 -17 0
20 18 -19 0
-20 -18 0
-20 19 0
21 2 -15 0
-21 -2 0
-21 15 0
22 -20 -21 0
-22 20 0
-22 21 0
23 -1 -2 0
-23 1 0
-23 2 0
24 -7 -9 0
-24 7 0
-24 9 0
25 -23 -24 0
-25 23 0
-25 24 0
26 22 25 0
-26 -22 0
-26 -25 0
27 3 26 0
-27 -3 0
-27 -26 0
28 -1 -13 0
-28 1 0
-28 13 0
29 12 28 0
-29 -12 0
-29 -28 0
30 -2 -3 0
-30 2 0
-30 3 0
31 2 3 0
-31 -2 0
-31 -3 0
32 30 31 0
-32 -30 0
-32 -31 0
33 -29 32 0
-33 29 0
-33 -32 0
34 20 -33 0
-34 -20 0
-34 33 0
35 3 -9 0
-35 -3 0
-35 9 0
36 -23 -35 0
-36 23 0
-36 35 0
37 29 -30 0
-37 -29 0
-37 30 0
38 -20 -37 0
-38 20 0
-38 37 0
39 10 36 0
-39 -10 0
-39 -36 0
40 34 -39 0
-40 -34 0
-40 39 0
41 38 -40 0
-41 -38 0
-41 40 0
42 27 -41 0
-42 -27 0
-42 41 0
11 42 0
-11 -42 0
11 0
8 -43 -52 0
-8 43 0
-8 52 0
52 -44 -45 0
-52 44 0
-52 45 0
9 -46 -53 0
-9 46 0
-9 53 0
53 -47 -48 0
-53 47 0
-53 48 0
10 -49 -54 0
-10 49 0
-10 54 0
54 -50 -51 0
-54 50 0
-54 51 0
